\ LP format - for model browsing. Use MPS format to capture full model detail.
Maximize
  8 x_1 + 6 x_2 + 6 x_3 + 7 x_4 + x_5 + 10 x_6 + 5 x_7 + 5 x_8 + 10 x_9
   + 5 x_10 + 2 x_11 + 8 x_12 + 9 x_13 + 6 x_14 + 8 x_15
Subject To
 C_1: 7 x_1 + 4 x_2 + 7 x_3 + 3 x_4 + x_5 + 3 x_6 + 3 x_7 + 9 x_8 + 2 x_9
   + 2 x_10 + 10 x_11 + 2 x_12 + 5 x_13 + 6 x_14 + 5 x_15 <= 34
 C_2: 6 x_1 + 3 x_2 + 3 x_3 + 3 x_4 + 2 x_5 + 5 x_6 + 3 x_7 + 6 x_8
   + 10 x_9 + 4 x_10 + 2 x_11 + 3 x_12 + 2 x_13 + 2 x_14 + x_15 <= 27
 C_3: 9 x_1 + 8 x_2 + 6 x_3 + 7 x_4 + x_5 + 6 x_6 + x_7 + 5 x_8 + 4 x_9
   + 4 x_10 + 6 x_11 + 4 x_12 + 5 x_13 + 3 x_14 + x_15 <= 35
 C_4: 2 x_1 + 8 x_2 + 6 x_3 + 6 x_4 + 2 x_5 + 7 x_6 + 2 x_7 + 4 x_8 + 4 x_9
   + x_10 + 8 x_11 + 7 x_12 + 6 x_13 + x_14 + 9 x_15 <= 36
 C_5: 6 x_1 + 9 x_2 + 6 x_3 + x_4 + 7 x_5 + 8 x_6 + 6 x_7 + 8 x_8 + 3 x_9
   + x_10 + x_11 + 10 x_12 + 6 x_13 + 8 x_14 + 2 x_15 <= 41
 CC(0): x_1 + x_3 + x_4 + x_6 + x_7 + x_8 + x_10 + x_11 + x_12 + x_13
   + x_14 + x_15 <= 8
 CC(1): x_1 + x_2 + x_3 + x_4 + x_6 + x_7 + x_8 + x_10 + x_11 + x_12 + x_14
   + x_15 <= 8
 CC(2): x_1 + x_2 + x_3 + x_4 + x_6 + x_7 + x_8 + x_10 + x_11 + x_12 + x_13
   + x_14 <= 8
 CC(3): x_1 + x_2 + x_3 + x_4 + x_5 + x_6 + x_7 + x_8 + x_10 + x_11 + x_12
   + x_13 + x_15 <= 9
 CC(4): x_1 + x_2 + x_3 + x_4 + x_5 + x_6 + x_7 + x_8 + x_9 + x_11 + x_12
   + x_13 + x_15 <= 9
 CC(5): x_1 + x_4 + x_5 + x_7 + x_8 + 2 x_9 + x_10 + x_11 + x_12 + x_13
   + x_14 + x_15 <= 9
 CC(6): x_1 + x_2 + x_5 + x_7 + x_8 + 2 x_9 + x_10 + x_11 + x_12 + x_13
   + x_14 + x_15 <= 9
 CC(7): x_1 + x_2 + x_4 + x_5 + x_7 + x_8 + 2 x_9 + x_10 + x_11 + x_13
   + x_14 + x_15 <= 9
 CC(8): x_1 + x_2 + x_3 + x_4 + x_5 + x_6 + x_7 + x_8 + 3 x_9 + x_10 + x_11
   + x_12 + x_13 + x_14 + x_15 <= 10
 CC(9): x_1 + x_2 + x_4 + x_5 + x_6 + x_7 + x_9 + x_10 + x_12 + x_13 + x_14
   + x_15 <= 9
 CC(10): x_1 + x_2 + x_4 + x_5 + x_7 + x_9 + x_10 + x_11 + x_12 + x_13
   + x_14 + x_15 <= 9
 CC(11): x_1 + x_2 + x_3 + x_4 + x_5 + x_7 + x_9 + x_10 + x_12 + x_13
   + x_14 + x_15 <= 9
 CC(12): x_1 + x_2 + x_4 + x_6 + x_7 + x_8 + x_9 + x_10 + x_11 + x_12
   + x_13 + x_14 + x_15 <= 9
 CC(13): x_1 + x_2 + x_3 + x_4 + x_6 + x_7 + x_8 + x_9 + x_11 + x_12 + x_13
   + x_14 <= 8
 CC(14): x_1 + x_2 + x_3 + x_4 + x_6 + x_7 + x_8 + x_9 + x_10 + x_11 + x_12
   + x_13 + x_14 + x_15 <= 9
 CC(15): x_1 + x_2 + x_4 + x_5 + x_6 + x_7 + x_8 + x_9 + x_10 + x_12 + x_14
   + x_15 <= 9
 CC(16): x_1 + x_2 + x_4 + x_5 + x_7 + x_8 + x_9 + x_10 + x_11 + x_12
   + x_14 + x_15 <= 9
 CC(17): x_1 + x_2 + x_3 + x_4 + x_5 + x_7 + x_8 + x_9 + x_10 + x_12 + x_14
   + x_15 <= 9
 CC(18): x_1 + x_4 + x_7 + x_9 + x_10 + x_12 + x_13 + x_14 + x_15 <= 8
 CC(19): x_1 + x_7 + x_8 + x_9 + x_10 + x_12 + x_13 + x_14 + x_15 <= 8
 CC(20): x_1 + x_5 + x_7 + x_9 + x_10 + x_12 + x_13 + x_14 + x_15 <= 8
 CC(21): x_5 + x_7 + x_9 + x_10 + x_11 + x_12 + x_13 + x_14 + x_15 <= 8
 CC(22): x_2 + x_5 + x_7 + x_9 + x_10 + x_12 + x_13 + x_14 + x_15 <= 8
 CC(23): x_5 + x_7 + x_8 + x_9 + x_10 + x_12 + x_13 + x_14 + x_15 <= 8
 CC(24): x_1 + x_5 + x_7 + x_8 + x_9 + x_10 + x_13 + x_14 + x_15 <= 8
 CC(25): x_1 + x_5 + x_8 + x_9 + x_10 + x_12 + x_13 + x_14 + x_15 <= 8
 CC(26): x_1 + x_2 + x_5 + x_8 + x_9 + x_10 + x_13 + x_14 + x_15 <= 8
 CC(27): x_1 + x_4 + x_5 + x_7 + x_9 + x_10 + x_13 + x_14 + x_15 <= 8
 CC(28): x_4 + x_5 + x_7 + x_9 + x_10 + x_11 + x_13 + x_14 + x_15 <= 8
 CC(29): x_2 + x_4 + x_5 + x_7 + x_9 + x_10 + x_13 + x_14 + x_15 <= 8
 CC(30): x_1 + x_3 + x_4 + x_6 + x_7 + x_8 + x_9 + x_11 + x_12 + x_13
   + x_14 + x_15 <= 8
 CC(31): x_1 + x_3 + x_6 + x_7 + x_8 + x_9 + x_10 + x_11 + x_12 + x_13
   + x_14 + x_15 <= 8
 CC(32): x_1 + x_3 + x_4 + x_6 + x_8 + x_9 + x_10 + x_11 + x_12 + x_13
   + x_14 + x_15 <= 8
 CC(33): x_1 + x_3 + x_4 + x_7 + x_8 + x_9 + x_10 + x_11 + x_12 + x_13
   + x_14 + x_15 <= 8
 CC(34): x_1 + x_2 + x_3 + x_4 + x_5 + x_6 + x_8 + x_9 + x_10 + x_11 + x_12
   + x_13 + x_14 <= 9
 CC(35): x_1 + x_2 + x_3 + x_4 + x_5 + x_6 + x_8 + x_9 + x_10 + x_11 + x_12
   + x_14 + x_15 <= 9
 CC(36): x_1 + x_2 + x_4 + x_6 + x_7 + x_8 + x_9 + x_12 + x_13 + x_14
   + x_15 <= 8
 CC(37): x_1 + x_2 + x_3 + x_6 + x_7 + x_8 + x_9 + x_12 + x_13 + x_14
   + x_15 <= 8
 CC(38): x_1 + x_2 + x_3 + x_4 + x_6 + x_8 + x_9 + x_12 + x_13 + x_14
   + x_15 <= 8
 CC(39): x_1 + x_2 + x_3 + x_4 + x_6 + x_7 + x_8 + x_9 + x_13 + x_14 + x_15
   <= 8
 CC(40): x_1 + x_2 + x_3 + x_6 + x_7 + x_8 + 2 x_9 + x_11 + x_12 + x_13
   + x_14 <= 8
 CC(41): x_1 + x_4 + x_5 + x_6 + x_7 + x_10 + x_12 + x_14 + x_15 <= 8
 CC(42): x_2 + x_3 + x_4 + x_6 + x_7 + x_8 + x_9 + x_10 + x_11 + x_12
   + x_13 + x_14 + x_15 <= 9
 CC(43): x_1 + x_2 + x_3 + x_4 + x_6 + x_8 + x_9 + x_10 + x_11 + x_12
   + x_13 + x_14 + x_15 <= 9
 CC(44): x_4 + x_7 + x_9 + x_10 + x_11 + x_12 + x_13 + x_14 + x_15 <= 8
 CC(45): x_1 + x_4 + x_9 + x_10 + x_11 + x_12 + x_13 + x_14 + x_15 <= 8
 CC(46): x_1 + x_4 + x_7 + x_9 + x_11 + x_12 + x_13 + x_14 + x_15 <= 8
 CC(47): x_4 + x_7 + x_8 + x_9 + x_11 + x_12 + x_13 + x_14 + x_15 <= 8
 CC(48): x_4 + x_8 + x_9 + x_10 + x_11 + x_12 + x_13 + x_14 + x_15 <= 8
 CC(49): x_5 + x_8 + x_9 + x_10 + x_11 + x_12 + x_13 + x_14 + x_15 <= 8
 CC(50): x_5 + x_7 + x_8 + x_9 + x_10 + x_11 + x_13 + x_14 + x_15 <= 8
 CC(51): x_1 + x_5 + x_7 + x_8 + x_9 + x_11 + x_13 + x_14 + x_15 <= 8
 CC(52): x_1 + x_5 + x_7 + x_9 + x_10 + x_11 + x_13 + x_14 + x_15 <= 8
 CC(53): x_5 + x_7 + x_8 + x_9 + x_10 + x_11 + x_12 + x_13 + x_15 <= 8
 CC(54): x_1 + x_7 + x_8 + x_9 + x_10 + x_11 + x_12 + x_13 + x_15 <= 8
 CC(55): x_1 + x_5 + x_7 + x_8 + x_9 + x_10 + x_11 + x_12 + x_13 <= 8
 CC(56): x_1 + x_5 + x_8 + x_9 + x_10 + x_11 + x_12 + x_13 + x_15 <= 8
 CC(57): x_1 + x_5 + x_7 + x_8 + x_9 + x_10 + x_12 + x_13 + x_15 <= 8
 CC(58): x_1 + x_4 + x_5 + x_8 + x_9 + x_10 + x_11 + x_12 + x_15 <= 8
 CC(59): x_1 + x_4 + x_7 + x_8 + x_9 + x_10 + x_11 + x_12 + x_15 <= 8
 CC(60): x_1 + x_4 + x_5 + x_7 + x_8 + x_9 + x_10 + x_11 + x_12 <= 8
 CC(61): x_1 + x_4 + x_7 + x_8 + x_9 + x_10 + x_11 + x_12 + x_14 <= 8
 CC(62): x_1 + x_7 + x_8 + x_9 + x_10 + x_11 + x_13 + x_14 + x_15 <= 8
 CC(63): x_1 + x_2 + x_8 + x_9 + x_10 + x_11 + x_13 + x_14 + x_15 <= 8
 CC(64): x_1 + x_2 + x_7 + x_8 + x_9 + x_11 + x_13 + x_14 + x_15 <= 8
 CC(65): x_1 + x_2 + x_5 + x_7 + x_8 + x_9 + x_11 + x_14 + x_15 <= 8
 CC(66): x_1 + x_2 + x_5 + x_7 + x_8 + x_9 + x_11 + x_13 + x_15 <= 8
 CC(67): x_1 + x_2 + x_5 + x_7 + x_8 + x_9 + x_12 + x_13 + x_15 <= 8
 CC(68): x_2 + x_5 + x_7 + x_8 + x_9 + x_10 + x_12 + x_13 + x_15 <= 8
 CC(69): x_2 + x_5 + x_8 + x_9 + x_10 + x_12 + x_13 + x_14 + x_15 <= 8
 CC(70): x_2 + x_5 + x_8 + x_9 + x_11 + x_12 + x_13 + x_14 + x_15 <= 8
 CC(71): x_1 + x_2 + x_5 + x_9 + x_11 + x_12 + x_13 + x_14 + x_15 <= 8
 CC(72): x_2 + x_5 + x_9 + x_10 + x_11 + x_12 + x_13 + x_14 + x_15 <= 8
 CC(73): x_2 + x_5 + x_8 + x_9 + x_10 + x_11 + x_12 + x_13 + x_15 <= 8
 CC(74): x_1 + x_2 + x_8 + x_9 + x_10 + x_11 + x_12 + x_13 + x_15 <= 8
 CC(75): x_1 + x_2 + x_5 + x_8 + x_9 + x_10 + x_11 + x_12 + x_13 <= 8
 CC(76): x_1 + x_2 + x_5 + x_8 + x_9 + x_10 + x_11 + x_13 + x_15 <= 8
 CC(77): x_1 + x_2 + x_5 + x_8 + x_9 + x_11 + x_13 + x_14 + x_15 <= 8
 CC(78): x_1 + x_5 + x_8 + x_9 + x_10 + x_11 + x_13 + x_14 + x_15 <= 8
 CC(79): x_1 + x_2 + x_5 + x_8 + x_9 + x_10 + x_11 + x_13 + x_14 <= 8
 CC(80): x_1 + x_2 + x_7 + x_8 + x_9 + x_10 + x_11 + x_13 + x_14 <= 8
 CC(81): x_1 + x_2 + x_7 + x_9 + x_10 + x_11 + x_13 + x_14 + x_15 <= 8
 CC(82): x_2 + x_7 + x_8 + x_9 + x_10 + x_11 + x_13 + x_14 + x_15 <= 8
 CC(83): x_2 + x_7 + x_9 + x_10 + x_11 + x_12 + x_13 + x_14 + x_15 <= 8
 CC(84): x_2 + x_7 + x_8 + x_9 + x_10 + x_11 + x_12 + x_14 + x_15 <= 8
 CC(85): x_1 + x_2 + x_7 + x_8 + x_9 + x_10 + x_11 + x_12 + x_15 <= 8
 CC(86): x_1 + x_2 + x_5 + x_7 + x_8 + x_9 + x_10 + x_11 + x_12 <= 8
 CC(87): x_1 + x_2 + x_7 + x_8 + x_9 + x_10 + x_11 + x_12 + x_14 <= 8
 CC(88): x_2 + x_5 + x_7 + x_8 + x_9 + x_10 + x_11 + x_12 + x_14 <= 8
 CC(89): x_5 + x_7 + x_8 + x_9 + x_10 + x_11 + x_12 + x_14 + x_15 <= 8
 CC(90): x_2 + x_5 + x_7 + x_8 + x_9 + x_10 + x_12 + x_14 + x_15 <= 8
 CC(91): x_1 + x_4 + x_7 + x_8 + x_9 + x_10 + x_13 + x_14 + x_15 <= 8
 CC(92): x_1 + x_2 + x_4 + x_8 + x_9 + x_10 + x_13 + x_14 + x_15 <= 8
 CC(93): x_1 + x_2 + x_4 + x_7 + x_8 + x_9 + x_13 + x_14 + x_15 <= 8
 CC(94): x_1 + x_2 + x_5 + x_7 + x_8 + x_9 + x_13 + x_14 + x_15 <= 8
 CC(95): x_1 + x_2 + x_5 + x_9 + x_10 + x_11 + x_13 + x_14 + x_15 <= 8
 CC(96): x_1 + x_2 + x_5 + x_8 + x_9 + x_10 + x_11 + x_14 + x_15 <= 8
 CC(97): x_2 + x_5 + x_7 + x_8 + x_9 + x_10 + x_11 + x_14 + x_15 <= 8
 CC(98): x_1 + x_2 + x_5 + x_7 + x_9 + x_10 + x_11 + x_14 + x_15 <= 8
 CC(99): x_4 + x_5 + x_7 + x_8 + x_9 + x_10 + x_11 + x_14 + x_15 <= 8
 CC(100): x_1 + x_4 + x_5 + x_7 + x_9 + x_10 + x_11 + x_14 + x_15 <= 8
 CC(101): x_2 + x_4 + x_5 + x_7 + x_9 + x_10 + x_11 + x_14 + x_15 <= 8
 CC(102): x_1 + x_2 + x_4 + x_5 + x_7 + x_9 + x_10 + x_14 + x_15 <= 8
 CC(103): x_1 + x_3 + x_4 + x_5 + x_6 + x_7 + x_8 + 2 x_9 + x_10 + x_12
   + x_13 + x_14 + x_15 <= 9
 CC(104): x_1 + x_3 + x_4 + x_5 + x_6 + x_7 + x_8 + 2 x_9 + x_10 + x_11
   + x_12 + x_13 + x_15 <= 9
 CC(105): x_1 + x_3 + x_4 + x_5 + x_6 + x_7 + x_8 + 2 x_9 + x_10 + x_11
   + x_12 + x_14 + x_15 <= 9
 CC(106): x_1 + x_2 + x_4 + x_5 + x_6 + x_7 + x_8 + 2 x_9 + x_10 + x_11
   + x_12 + x_13 + x_15 <= 9
 CC(107): x_1 + x_2 + x_3 + x_5 + x_6 + x_7 + x_8 + 2 x_9 + x_10 + x_11
   + x_12 + x_13 + x_15 <= 9
 CC(108): x_1 + x_2 + x_4 + x_6 + x_7 + x_8 + 2 x_9 + x_10 + x_11 + x_12
   + x_13 + x_14 + x_15 <= 9
 CC(109): x_1 + x_2 + x_4 + x_5 + x_6 + x_7 + x_8 + 2 x_9 + x_10 + x_11
   + x_12 + x_14 + x_15 <= 9
 CC(110): x_1 + x_2 + x_4 + x_5 + x_6 + x_7 + x_8 + 2 x_9 + x_10 + x_11
   + x_12 + x_13 + x_14 <= 9
 CC(111): x_1 + x_2 + x_4 + x_5 + x_6 + x_7 + x_8 + 2 x_9 + x_10 + x_12
   + x_13 + x_14 + x_15 <= 9
 CC(112): x_1 + x_2 + x_4 + x_6 + x_7 + x_8 + x_10 + x_12 + x_13 + x_14
   + x_15 <= 8
 CC(113): x_1 + x_2 + x_4 + x_7 + x_8 + x_10 + x_11 + x_12 + x_13 + x_14
   + x_15 <= 8
 CC(114): x_1 + x_2 + x_3 + x_4 + x_5 + x_6 + x_7 + x_8 + x_10 + x_11
   + x_12 + x_13 + x_14 + x_15 <= 9
 CC(115): x_1 + x_4 + x_7 + x_8 + x_9 + x_12 + x_13 + x_14 + x_15 <= 8
 CC(116): x_1 + x_4 + x_8 + x_9 + x_11 + x_12 + x_13 + x_14 + x_15 <= 8
 CC(117): x_4 + x_5 + x_8 + x_9 + x_11 + x_12 + x_13 + x_14 + x_15 <= 8
 CC(118): x_5 + x_7 + x_8 + x_9 + x_11 + x_12 + x_13 + x_14 + x_15 <= 8
 CC(119): x_4 + x_5 + x_8 + x_9 + x_10 + x_11 + x_13 + x_14 + x_15 <= 8
 CC(120): x_4 + x_5 + x_8 + x_9 + x_10 + x_11 + x_12 + x_14 + x_15 <= 8
 CC(121): x_1 + x_4 + x_5 + x_7 + x_8 + x_9 + x_10 + x_12 + x_13 <= 8
 CC(122): x_1 + x_4 + x_7 + x_8 + x_9 + x_10 + x_12 + x_13 + x_14 <= 8
 CC(123): x_1 + x_4 + x_7 + x_8 + x_9 + x_10 + x_12 + x_13 + x_15 <= 8
 CC(124): x_1 + x_4 + x_5 + x_7 + x_8 + x_9 + x_10 + x_13 + x_15 <= 8
 CC(125): x_1 + x_4 + x_5 + x_7 + x_8 + x_9 + x_11 + x_13 + x_15 <= 8
 CC(126): x_1 + x_4 + x_5 + x_7 + x_9 + x_10 + x_11 + x_13 + x_15 <= 8
 CC(127): x_1 + x_4 + x_5 + x_7 + x_9 + x_11 + x_12 + x_13 + x_15 <= 8
 CC(128): x_4 + x_5 + x_7 + x_9 + x_10 + x_11 + x_12 + x_13 + x_15 <= 8
 CC(129): x_4 + x_5 + x_7 + x_8 + x_9 + x_11 + x_12 + x_13 + x_15 <= 8
 CC(130): x_4 + x_5 + x_7 + x_9 + x_11 + x_12 + x_13 + x_14 + x_15 <= 8
 CC(131): x_1 + x_4 + x_5 + x_7 + x_9 + x_12 + x_13 + x_14 + x_15 <= 8
 CC(132): x_1 + x_4 + x_5 + x_9 + x_11 + x_12 + x_13 + x_14 + x_15 <= 8
 CC(133): x_1 + x_4 + x_7 + x_8 + x_9 + x_11 + x_12 + x_13 + x_14 <= 8
 CC(134): x_1 + x_4 + x_5 + x_7 + x_9 + x_11 + x_13 + x_14 + x_15 <= 8
 CC(135): x_4 + x_5 + x_7 + x_8 + x_9 + x_11 + x_13 + x_14 + x_15 <= 8
 CC(136): x_1 + x_4 + x_5 + x_7 + x_8 + x_9 + x_11 + x_13 + x_14 <= 8
 CC(137): x_1 + x_4 + x_5 + x_7 + x_8 + x_9 + x_13 + x_14 + x_15 <= 8
 CC(138): x_1 + x_4 + x_5 + x_7 + x_8 + x_9 + x_10 + x_13 + x_14 <= 8
 CC(139): x_1 + x_7 + x_8 + x_9 + x_11 + x_12 + x_13 + x_14 + x_15 <= 8
 CC(140): x_1 + x_2 + x_7 + x_9 + x_11 + x_12 + x_13 + x_14 + x_15 <= 8
 CC(141): x_2 + x_7 + x_8 + x_9 + x_11 + x_12 + x_13 + x_14 + x_15 <= 8
 CC(142): x_1 + x_2 + x_5 + x_7 + x_9 + x_11 + x_13 + x_14 + x_15 <= 8
 CC(143): x_1 + x_5 + x_7 + x_9 + x_11 + x_12 + x_13 + x_14 + x_15 <= 8
 CC(144): x_1 + x_5 + x_7 + x_8 + x_9 + x_10 + x_11 + x_12 + x_15 <= 8
 CC(145): x_1 + x_2 + x_8 + x_9 + x_11 + x_12 + x_13 + x_14 + x_15 <= 8
 CC(146): x_2 + x_5 + x_8 + x_9 + x_10 + x_11 + x_12 + x_13 + x_14 <= 8
 CC(147): x_1 + x_2 + x_5 + x_8 + x_9 + x_10 + x_12 + x_13 + x_14 <= 8
 CC(148): x_1 + x_5 + x_8 + x_9 + x_10 + x_11 + x_12 + x_13 + x_14 <= 8
 CC(149): x_1 + x_2 + x_5 + x_8 + x_9 + x_10 + x_11 + x_12 + x_14 <= 8
 CC(150): x_1 + x_2 + x_5 + x_8 + x_9 + x_11 + x_12 + x_13 + x_15 <= 8
 CC(151): x_1 + x_2 + x_5 + x_9 + x_10 + x_11 + x_12 + x_13 + x_15 <= 8
 CC(152): x_1 + x_2 + x_4 + x_7 + x_9 + x_10 + x_13 + x_14 + x_15 <= 8
 CC(153): x_1 + x_2 + x_4 + x_5 + x_9 + x_10 + x_13 + x_14 + x_15 <= 8
 CC(154): x_1 + x_2 + x_4 + x_5 + x_9 + x_11 + x_13 + x_14 + x_15 <= 8
 CC(155): x_2 + x_4 + x_5 + x_8 + x_9 + x_11 + x_13 + x_14 + x_15 <= 8
 CC(156): x_1 + x_2 + x_4 + x_5 + x_8 + x_9 + x_13 + x_14 + x_15 <= 8
 CC(157): x_1 + x_4 + x_5 + x_8 + x_9 + x_11 + x_13 + x_14 + x_15 <= 8
 CC(158): x_1 + x_6 + x_7 + x_8 + x_9 + x_12 + x_13 + x_14 <= 7
 CC(159): x_1 + x_2 + x_6 + x_7 + x_8 + x_9 + x_12 + x_13 <= 7
 CC(160): x_1 + x_2 + x_6 + x_8 + x_9 + x_12 + x_13 + x_14 <= 7
 CC(161): x_1 + x_2 + x_3 + x_6 + x_8 + x_9 + x_12 + x_14 <= 7
 CC(162): x_2 + x_3 + x_6 + x_8 + x_9 + x_12 + x_13 + x_14 <= 7
 CC(163): x_2 + x_3 + x_6 + x_9 + x_11 + x_12 + x_13 + x_14 <= 7
 CC(164): x_1 + x_2 + x_3 + x_6 + x_9 + x_11 + x_12 + x_14 <= 7
 CC(165): x_2 + x_3 + x_7 + x_9 + x_11 + x_12 + x_13 + x_14 <= 7
 CC(166): x_1 + x_2 + x_3 + x_7 + x_9 + x_11 + x_12 + x_14 <= 7
 CC(167): x_1 + x_2 + x_3 + x_4 + x_5 + x_7 + x_8 + x_9 + x_10 + x_11
   + x_12 + x_14 + x_15 <= 9
 CC(168): x_1 + x_2 + x_3 + x_4 + x_5 + x_7 + x_8 + x_9 + x_10 + x_11
   + x_12 + x_13 + x_14 <= 9
 CC(169): x_1 + x_4 + x_6 + x_7 + x_8 + x_9 + x_10 + x_11 + x_13 + x_14
   + x_15 <= 8
 CC(170): x_1 + x_4 + x_6 + x_8 + x_9 + x_10 + x_11 + x_12 + x_13 + x_14
   + x_15 <= 8
 CC(171): x_1 + x_3 + x_4 + x_5 + x_8 + 2 x_9 + x_10 + x_11 + x_12 + x_13
   + x_14 + x_15 <= 9
 CC(172): x_1 + x_2 + x_3 + x_5 + x_8 + 2 x_9 + x_10 + x_11 + x_12 + x_13
   + x_14 + x_15 <= 9
 CC(173): x_1 + x_2 + x_3 + x_5 + x_7 + x_8 + 2 x_9 + x_10 + x_11 + x_13
   + x_14 + x_15 <= 9
 CC(174): x_4 + x_7 + x_8 + x_9 + x_10 + x_12 + x_13 + x_14 + x_15 <= 8
 CC(175): x_1 + x_7 + x_9 + x_10 + x_11 + x_12 + x_13 + x_14 + x_15 <= 8
 CC(176): x_1 + x_5 + x_7 + x_9 + x_10 + x_11 + x_12 + x_14 + x_15 <= 8
 CC(177): x_1 + x_5 + x_7 + x_9 + x_10 + x_11 + x_12 + x_13 + x_15 <= 8
 CC(178): x_1 + x_5 + x_7 + x_9 + x_10 + x_11 + x_12 + x_13 + x_14 <= 8
 CC(179): x_1 + x_2 + x_5 + x_7 + x_9 + x_10 + x_12 + x_13 + x_14 <= 8
 CC(180): x_1 + x_2 + x_5 + x_9 + x_10 + x_11 + x_12 + x_13 + x_14 <= 8
 CC(181): x_1 + x_2 + x_5 + x_8 + x_9 + x_11 + x_12 + x_13 + x_14 <= 8
 CC(182): x_1 + x_2 + x_5 + x_7 + x_9 + x_11 + x_12 + x_13 + x_14 <= 8
 CC(183): x_1 + x_2 + x_5 + x_7 + x_9 + x_10 + x_11 + x_13 + x_14 <= 8
 CC(184): x_1 + x_2 + x_5 + x_7 + x_9 + x_10 + x_11 + x_12 + x_14 <= 8
 CC(185): x_1 + x_2 + x_7 + x_8 + x_9 + x_10 + x_11 + x_12 + x_13 <= 8
 CC(186): x_1 + x_2 + x_5 + x_8 + x_9 + x_11 + x_12 + x_14 + x_15 <= 8
 CC(187): x_1 + x_2 + x_5 + x_9 + x_10 + x_11 + x_12 + x_14 + x_15 <= 8
 CC(188): x_1 + x_2 + x_5 + x_8 + x_9 + x_10 + x_12 + x_14 + x_15 <= 8
 CC(189): x_1 + x_5 + x_8 + x_9 + x_10 + x_11 + x_12 + x_14 + x_15 <= 8
 CC(190): x_1 + x_5 + x_7 + x_8 + x_9 + x_10 + x_12 + x_14 + x_15 <= 8
 CC(191): x_1 + x_2 + x_5 + x_7 + x_8 + x_9 + x_10 + x_14 + x_15 <= 8
 CC(192): x_1 + x_2 + x_5 + x_7 + x_8 + x_9 + x_10 + x_13 + x_15 <= 8
 CC(193): x_1 + x_6 + x_7 + x_9 + x_11 + x_12 + x_13 + x_14 <= 7
 CC(194): x_1 + x_3 + x_6 + x_9 + x_11 + x_12 + x_13 + x_14 <= 7
 CC(195): x_1 + x_3 + x_6 + x_8 + x_9 + x_11 + x_12 + x_13 <= 7
 CC(196): x_1 + x_3 + x_6 + x_8 + x_9 + x_12 + x_13 + x_14 <= 7
 CC(197): x_1 + x_2 + x_3 + x_6 + x_8 + x_9 + x_12 + x_13 <= 7
 CC(198): x_1 + x_2 + x_3 + x_6 + x_7 + x_9 + x_12 + x_13 <= 7
 CC(199): x_2 + x_3 + x_6 + x_7 + x_9 + x_12 + x_13 + x_14 <= 7
 CC(200): x_2 + x_3 + x_6 + x_7 + x_9 + x_11 + x_12 + x_14 <= 7
 CC(201): x_1 + x_2 + x_3 + x_6 + x_7 + x_9 + x_12 + x_14 <= 7
 CC(202): x_2 + x_3 + x_7 + x_8 + x_9 + x_12 + x_13 + x_14 <= 7
 CC(203): x_3 + x_6 + x_7 + x_8 + x_9 + x_12 + x_13 + x_14 <= 7
 CC(204): x_1 + x_4 + x_6 + x_7 + x_9 + x_10 + x_12 + x_13 + x_15 <= 8
 CC(205): x_1 + x_4 + x_6 + x_7 + x_9 + x_10 + x_12 + x_14 + x_15 <= 8
 CC(206): x_1 + x_4 + x_6 + x_9 + x_10 + x_11 + x_12 + x_14 + x_15 <= 8
 CC(207): x_1 + x_4 + x_6 + x_7 + x_9 + x_10 + x_11 + x_14 + x_15 <= 8
 CC(208): x_1 + x_3 + x_4 + x_6 + x_9 + x_10 + x_11 + x_14 + x_15 <= 8
 CC(209): x_1 + x_3 + x_4 + x_6 + x_8 + x_9 + x_10 + x_11 + x_14 <= 8
 CC(210): x_1 + x_3 + x_4 + x_5 + x_6 + x_8 + x_9 + x_10 + x_14 <= 8
 CC(211): x_1 + x_3 + x_4 + x_5 + x_8 + x_9 + x_10 + x_14 + x_15 <= 8
 CC(212): x_1 + x_3 + x_4 + x_8 + x_9 + x_10 + x_11 + x_14 + x_15 <= 8
 CC(213): x_1 + x_3 + x_4 + x_7 + x_8 + x_9 + x_10 + x_14 + x_15 <= 8
 CC(214): x_1 + x_3 + x_4 + x_8 + x_9 + x_10 + x_12 + x_14 + x_15 <= 8
 CC(215): x_1 + x_4 + x_5 + x_8 + x_9 + x_10 + x_11 + x_14 + x_15 <= 8
 CC(216): x_1 + x_5 + x_6 + x_8 + x_9 + x_10 + x_11 + x_14 + x_15 <= 8
 CC(217): x_1 + x_4 + x_5 + x_6 + x_9 + x_10 + x_11 + x_14 + x_15 <= 8
 CC(218): x_1 + x_3 + x_4 + x_5 + x_6 + x_9 + x_10 + x_11 + x_14 <= 8
 CC(219): x_1 + x_3 + x_4 + x_6 + x_8 + x_9 + x_10 + x_14 + x_15 <= 8
 CC(220): x_3 + x_4 + x_5 + x_6 + x_9 + x_10 + x_11 + x_14 + x_15 <= 8
 CC(221): x_1 + x_3 + x_4 + x_5 + x_9 + x_10 + x_11 + x_14 + x_15 <= 8
 CC(222): x_3 + x_4 + x_5 + x_8 + x_9 + x_10 + x_11 + x_14 + x_15 <= 8
 CC(223): x_1 + x_3 + x_4 + x_5 + x_8 + x_9 + x_11 + x_14 + x_15 <= 8
 CC(224): x_1 + x_3 + x_4 + x_5 + x_8 + x_9 + x_11 + x_12 + x_14 <= 8
 CC(225): x_1 + x_3 + x_5 + x_8 + x_9 + x_11 + x_12 + x_14 + x_15 <= 8
 CC(226): x_1 + x_3 + x_5 + x_6 + x_9 + x_11 + x_12 + x_14 + x_15 <= 8
 CC(227): x_3 + x_5 + x_6 + x_8 + x_9 + x_11 + x_12 + x_14 + x_15 <= 8
 CC(228): x_1 + x_3 + x_5 + x_6 + x_9 + x_10 + x_11 + x_12 + x_15 <= 8
 CC(229): x_1 + x_3 + x_4 + x_5 + x_6 + x_9 + x_10 + x_11 + x_15 <= 8
 CC(230): x_1 + x_3 + x_4 + x_5 + x_6 + x_8 + x_9 + x_10 + x_11 <= 8
 CC(231): x_1 + x_3 + x_4 + x_5 + x_6 + x_8 + x_9 + x_10 + x_15 <= 8
 CC(232): x_1 + x_3 + x_4 + x_5 + x_6 + x_8 + x_9 + x_10 + x_12 <= 8
 CC(233): x_3 + x_4 + x_5 + x_6 + x_8 + x_9 + x_10 + x_12 + x_15 <= 8
 CC(234): x_3 + x_4 + x_5 + x_8 + x_9 + x_10 + x_11 + x_12 + x_15 <= 8
 CC(235): x_3 + x_4 + x_6 + x_8 + x_9 + x_10 + x_11 + x_12 + x_15 <= 8
 CC(236): x_1 + x_3 + x_4 + x_6 + x_8 + x_9 + x_10 + x_11 + x_15 <= 8
 CC(237): x_1 + x_3 + x_4 + x_7 + x_8 + x_9 + x_10 + x_12 + x_14 <= 8
 CC(238): x_1 + x_4 + x_7 + x_9 + x_10 + x_11 + x_12 + x_13 + x_15 <= 8
 CC(239): x_1 + x_4 + x_5 + x_7 + x_9 + x_10 + x_12 + x_13 + x_15 <= 8
 CC(240): x_1 + x_2 + x_4 + x_5 + x_7 + x_9 + x_10 + x_12 + x_15 <= 8
 CC(241): x_2 + x_4 + x_5 + x_7 + x_9 + x_10 + x_12 + x_13 + x_15 <= 8
 CC(242): x_2 + x_4 + x_7 + x_9 + x_10 + x_11 + x_12 + x_13 + x_15 <= 8
 CC(243): x_1 + x_2 + x_6 + x_7 + x_9 + x_10 + x_12 + x_13 + x_15 <= 8
 CC(244): x_1 + x_2 + x_6 + x_8 + x_9 + x_10 + x_12 + x_13 + x_15 <= 8
 CC(245): x_1 + x_2 + x_5 + x_6 + x_8 + x_9 + x_10 + x_12 + x_13 <= 8
 CC(246): x_1 + x_2 + x_6 + x_8 + x_9 + x_10 + x_11 + x_12 + x_13 <= 8
 CC(247): x_1 + x_2 + x_6 + x_7 + x_8 + x_9 + x_10 + x_12 + x_13 <= 8
 CC(248): x_2 + x_6 + x_7 + x_8 + x_9 + x_10 + x_12 + x_13 + x_15 <= 8
 CC(249): x_2 + x_7 + x_8 + x_9 + x_10 + x_11 + x_12 + x_13 + x_15 <= 8
 CC(250): x_1 + x_4 + x_5 + x_6 + x_7 + x_9 + x_10 + x_12 + x_15 <= 8
 CC(251): x_1 + x_4 + x_5 + x_6 + x_9 + x_10 + x_11 + x_12 + x_15 <= 8
 CC(252): x_1 + x_4 + x_5 + x_6 + x_7 + x_9 + x_10 + x_11 + x_12 <= 8
 CC(253): x_1 + x_2 + x_4 + x_5 + x_6 + x_9 + x_10 + x_11 + x_12 <= 8
 CC(254): x_1 + x_2 + x_5 + x_6 + x_7 + x_9 + x_10 + x_11 + x_12 <= 8
 CC(255): x_1 + x_2 + x_5 + x_6 + x_7 + x_9 + x_10 + x_11 + x_15 <= 8
 CC(256): x_2 + x_5 + x_6 + x_7 + x_8 + x_9 + x_10 + x_11 + x_15 <= 8
 CC(257): x_1 + x_4 + x_6 + x_7 + x_9 + x_10 + x_12 + x_13 + x_14 <= 8
 CC(258): x_1 + x_4 + x_6 + x_8 + x_9 + x_10 + x_12 + x_13 + x_14 <= 8
 CC(259): x_1 + x_4 + x_5 + x_6 + x_8 + x_9 + x_10 + x_12 + x_14 <= 8
 CC(260): x_1 + x_2 + x_4 + x_6 + x_8 + x_9 + x_10 + x_12 + x_14 <= 8
 CC(261): x_1 + x_4 + x_6 + x_7 + x_8 + x_9 + x_10 + x_12 + x_14 <= 8
 CC(262): x_1 + x_4 + x_5 + x_6 + x_8 + x_9 + x_10 + x_13 + x_14 <= 8
 CC(263): x_1 + x_4 + x_5 + x_6 + x_9 + x_10 + x_12 + x_13 + x_14 <= 8
 CC(264): x_1 + x_2 + x_4 + x_5 + x_6 + x_8 + x_9 + x_10 + x_13 <= 8
 CC(265): x_1 + x_2 + x_4 + x_5 + x_6 + x_7 + x_8 + x_9 + x_10 <= 8
 CC(266): x_1 + x_2 + x_4 + x_6 + x_7 + x_8 + x_9 + x_10 + x_11 <= 8
 CC(267): x_1 + x_2 + x_4 + x_6 + x_7 + x_8 + x_9 + x_10 + x_14 <= 8
 CC(268): x_1 + x_4 + x_6 + x_7 + x_8 + x_9 + x_10 + x_11 + x_14 <= 8
 CC(269): x_1 + x_2 + x_4 + x_6 + x_8 + x_9 + x_10 + x_11 + x_14 <= 8
 CC(270): x_1 + x_2 + x_4 + x_5 + x_6 + x_9 + x_10 + x_11 + x_14 <= 8
 CC(271): x_2 + x_4 + x_5 + x_6 + x_9 + x_10 + x_11 + x_13 + x_14 <= 8
 CC(272): x_1 + x_2 + x_4 + x_5 + x_9 + x_10 + x_11 + x_13 + x_14 <= 8
 CC(273): x_2 + x_4 + x_5 + x_6 + x_8 + x_9 + x_10 + x_13 + x_14 <= 8
 CC(274): x_1 + x_2 + x_4 + x_6 + x_8 + x_9 + x_10 + x_13 + x_14 <= 8
 CC(275): x_1 + x_2 + x_4 + x_5 + x_6 + x_8 + x_9 + x_10 + x_14 <= 8
 CC(276): x_2 + x_4 + x_5 + x_6 + x_8 + x_9 + x_10 + x_12 + x_14 <= 8
 CC(277): x_1 + x_2 + x_4 + x_5 + x_6 + x_9 + x_10 + x_12 + x_14 <= 8
 CC(278): x_1 + x_2 + x_4 + x_5 + x_6 + x_9 + x_10 + x_12 + x_13 <= 8
 CC(279): x_1 + x_4 + x_5 + x_6 + x_9 + x_10 + x_11 + x_12 + x_13 <= 8
 CC(280): x_1 + x_4 + x_5 + x_6 + x_7 + x_9 + x_10 + x_12 + x_13 <= 8
 CC(281): x_1 + x_2 + x_4 + x_6 + x_9 + x_10 + x_12 + x_13 + x_14 <= 8
 CC(282): x_1 + x_2 + x_4 + x_8 + x_9 + x_10 + x_12 + x_13 + x_14 <= 8
 CC(283): x_2 + x_4 + x_6 + x_8 + x_9 + x_10 + x_12 + x_13 + x_14 <= 8
 CC(284): x_1 + x_2 + x_4 + x_7 + x_8 + x_9 + x_10 + x_12 + x_14 <= 8
 CC(285): x_1 + x_2 + x_4 + x_8 + x_9 + x_10 + x_11 + x_12 + x_14 <= 8
 CC(286): x_1 + x_3 + x_4 + x_5 + x_6 + x_7 + x_8 + 2 x_9 + x_10 + x_11
   + x_12 + x_13 + x_14 <= 9
 CC(287): x_1 + x_2 + x_3 + x_4 + x_5 + x_6 + x_7 + x_8 + 2 x_9 + x_10
   + x_13 + x_14 + x_15 <= 9
 CC(288): x_1 + x_2 + x_3 + x_4 + x_5 + x_6 + x_8 + 2 x_9 + x_10 + x_12
   + x_13 + x_14 + x_15 <= 9
 CC(289): x_1 + x_2 + x_3 + x_4 + x_5 + x_6 + x_8 + 2 x_9 + x_10 + x_11
   + x_12 + x_13 + x_14 <= 9
 CC(290): x_1 + x_2 + x_3 + x_4 + x_5 + x_6 + x_8 + 2 x_9 + x_10 + x_11
   + x_12 + x_14 + x_15 <= 9
 CC(291): x_1 + x_2 + x_3 + x_5 + x_6 + x_7 + x_8 + 2 x_9 + x_10 + x_11
   + x_12 + x_14 + x_15 <= 9
 CC(292): x_1 + x_5 + x_6 + x_7 + x_10 + x_12 + x_13 + x_14 + x_15 <= 8
 CC(293): x_1 + x_3 + x_5 + x_6 + x_7 + x_10 + x_12 + x_14 + x_15 <= 8
 CC(294): x_1 + x_2 + x_9 + x_10 + x_11 + x_12 + x_13 + x_14 + x_15 <= 8
 CC(295): x_1 + x_2 + x_8 + x_9 + x_10 + x_12 + x_13 + x_14 + x_15 <= 8
 CC(296): x_1 + x_2 + x_7 + x_8 + x_9 + x_10 + x_12 + x_13 + x_14 <= 8
 CC(297): x_1 + x_2 + x_8 + x_9 + x_10 + x_11 + x_12 + x_13 + x_14 <= 8
 CC(298): x_1 + x_7 + x_8 + x_9 + x_10 + x_11 + x_12 + x_13 + x_14 <= 8
 CC(299): x_1 + x_2 + x_7 + x_8 + x_9 + x_10 + x_12 + x_13 + x_15 <= 8
 CC(300): x_1 + x_2 + x_5 + x_7 + x_8 + x_9 + x_10 + x_12 + x_13 <= 8
 CC(301): x_2 + x_7 + x_8 + x_9 + x_10 + x_12 + x_13 + x_14 + x_15 <= 8
 CC(302): x_7 + x_8 + x_9 + x_10 + x_11 + x_12 + x_13 + x_14 + x_15 <= 8
 CC(303): x_1 + x_4 + x_7 + x_9 + x_10 + x_11 + x_13 + x_14 + x_15 <= 8
 CC(304): x_1 + x_4 + x_8 + x_9 + x_10 + x_11 + x_13 + x_14 + x_15 <= 8
 CC(305): x_4 + x_7 + x_8 + x_9 + x_10 + x_11 + x_13 + x_14 + x_15 <= 8
 CC(306): x_2 + x_4 + x_5 + x_7 + x_9 + x_10 + x_11 + x_13 + x_15 <= 8
 CC(307): x_2 + x_4 + x_7 + x_9 + x_10 + x_11 + x_13 + x_14 + x_15 <= 8
 CC(308): x_1 + x_2 + x_4 + x_5 + x_9 + x_10 + x_11 + x_13 + x_15 <= 8
 CC(309): x_1 + x_2 + x_4 + x_5 + x_8 + x_9 + x_11 + x_13 + x_15 <= 8
 CC(310): x_1 + x_2 + x_4 + x_5 + x_7 + x_9 + x_10 + x_11 + x_15 <= 8
 CC(311): x_1 + x_2 + x_4 + x_7 + x_8 + x_9 + x_10 + x_11 + x_15 <= 8
 CC(312): x_1 + x_2 + x_4 + x_5 + x_7 + x_8 + x_9 + x_10 + x_11 <= 8
 CC(313): x_1 + x_2 + x_4 + x_7 + x_8 + x_9 + x_10 + x_11 + x_13 <= 8
 CC(314): x_1 + x_2 + x_4 + x_7 + x_8 + x_9 + x_10 + x_11 + x_14 <= 8
 CC(315): x_2 + x_4 + x_7 + x_8 + x_9 + x_10 + x_11 + x_13 + x_14 <= 8
 CC(316): x_4 + x_5 + x_7 + x_8 + x_9 + x_10 + x_11 + x_13 + x_14 <= 8
 CC(317): x_4 + x_5 + x_7 + x_8 + x_9 + x_10 + x_13 + x_14 + x_15 <= 8
 CC(318): x_2 + x_5 + x_8 + x_9 + x_10 + x_11 + x_13 + x_14 + x_15 <= 8
 CC(319): x_2 + x_5 + x_7 + x_9 + x_10 + x_11 + x_13 + x_14 + x_15 <= 8
 CC(320): x_2 + x_5 + x_7 + x_8 + x_9 + x_11 + x_13 + x_14 + x_15 <= 8
 CC(321): x_2 + x_4 + x_5 + x_7 + x_8 + x_9 + x_13 + x_14 + x_15 <= 8
 CC(322): x_2 + x_4 + x_5 + x_7 + x_9 + x_10 + x_11 + x_13 + x_14 <= 8
 CC(323): x_1 + x_2 + x_6 + x_7 + x_9 + x_12 + x_13 + x_14 <= 7
 CC(324): x_2 + x_6 + x_7 + x_9 + x_11 + x_12 + x_13 + x_14 <= 7
 CC(325): x_1 + x_2 + x_6 + x_7 + x_9 + x_11 + x_12 + x_14 <= 7
 CC(326): x_2 + x_3 + x_6 + x_7 + x_8 + x_9 + x_11 + x_14 <= 7
 CC(327): x_2 + x_3 + x_7 + x_8 + x_9 + x_11 + x_12 + x_14 <= 7
 CC(328): x_2 + x_3 + x_6 + x_7 + x_8 + x_9 + x_13 + x_14 <= 7
 CC(329): x_2 + x_3 + x_6 + x_7 + x_8 + x_9 + x_11 + x_12 <= 7
 CC(330): x_1 + x_2 + x_3 + x_6 + x_7 + x_8 + x_9 + x_12 <= 7
 CC(331): x_2 + x_3 + x_6 + x_7 + x_8 + x_9 + x_12 + x_13 <= 7
 CC(332): x_1 + x_3 + x_6 + x_7 + x_8 + x_9 + x_12 + x_14 <= 7
 CC(333): x_1 + x_5 + x_6 + x_7 + x_9 + x_10 + x_12 + x_13 + x_15 <= 8
 CC(334): x_5 + x_6 + x_7 + x_8 + x_9 + x_10 + x_12 + x_13 + x_15 <= 8
 CC(335): x_5 + x_6 + x_7 + x_9 + x_10 + x_11 + x_12 + x_13 + x_15 <= 8
 CC(336): x_1 + x_5 + x_6 + x_7 + x_9 + x_11 + x_12 + x_13 + x_15 <= 8
 CC(337): x_5 + x_6 + x_7 + x_8 + x_9 + x_11 + x_12 + x_13 + x_15 <= 8
 CC(338): x_3 + x_5 + x_6 + x_7 + x_9 + x_11 + x_12 + x_13 + x_15 <= 8
 CC(339): x_3 + x_4 + x_5 + x_6 + x_7 + x_9 + x_11 + x_12 + x_13 <= 8
 CC(340): x_3 + x_4 + x_5 + x_6 + x_7 + x_8 + x_9 + x_12 + x_13 <= 8
 CC(341): x_1 + x_3 + x_4 + x_6 + x_7 + x_8 + x_9 + x_12 + x_13 <= 8
 CC(342): x_1 + x_3 + x_4 + x_5 + x_7 + x_8 + x_9 + x_12 + x_13 <= 8
 CC(343): x_1 + x_3 + x_4 + x_7 + x_8 + x_9 + x_10 + x_12 + x_13 <= 8
 CC(344): x_1 + x_4 + x_6 + x_7 + x_8 + x_9 + x_10 + x_14 + x_15 <= 8
 CC(345): x_1 + x_4 + x_5 + x_6 + x_7 + x_8 + x_9 + x_10 + x_14 <= 8
 CC(346): x_1 + x_3 + x_4 + x_5 + x_7 + x_8 + x_9 + x_10 + x_14 <= 8
 CC(347): x_3 + x_4 + x_5 + x_6 + x_7 + x_8 + x_9 + x_10 + x_14 <= 8
 CC(348): x_1 + x_3 + x_4 + x_5 + x_6 + x_7 + x_8 + x_9 + x_10 <= 8
 CC(349): x_1 + x_3 + x_4 + x_6 + x_7 + x_8 + x_9 + x_10 + x_12 <= 8
 CC(350): x_1 + x_3 + x_4 + x_6 + x_7 + x_8 + x_9 + x_10 + x_15 <= 8
 CC(351): x_1 + x_3 + x_4 + x_6 + x_7 + x_9 + x_10 + x_12 + x_15 <= 8
 CC(352): x_3 + x_4 + x_6 + x_7 + x_9 + x_10 + x_11 + x_12 + x_15 <= 8
 CC(353): x_3 + x_4 + x_5 + x_7 + x_9 + x_10 + x_11 + x_12 + x_15 <= 8
 CC(354): x_3 + x_4 + x_5 + x_7 + x_8 + x_9 + x_10 + x_12 + x_15 <= 8
 CC(355): x_1 + x_3 + x_4 + x_7 + x_8 + x_9 + x_10 + x_12 + x_15 <= 8
 CC(356): x_3 + x_4 + x_6 + x_7 + x_8 + x_9 + x_10 + x_12 + x_15 <= 8
 CC(357): x_1 + x_4 + x_5 + x_7 + x_8 + x_9 + x_10 + x_12 + x_15 <= 8
 CC(358): x_1 + x_5 + x_6 + x_7 + x_8 + x_9 + x_10 + x_12 + x_15 <= 8
 CC(359): x_1 + x_5 + x_6 + x_7 + x_9 + x_10 + x_11 + x_12 + x_15 <= 8
 CC(360): x_1 + x_5 + x_6 + x_7 + x_8 + x_9 + x_10 + x_11 + x_12 <= 8
 CC(361): x_1 + x_4 + x_5 + x_6 + x_7 + x_8 + x_9 + x_10 + x_12 <= 8
 CC(362): x_1 + x_6 + x_7 + x_8 + x_9 + x_10 + x_12 + x_13 + x_15 <= 8
 CC(363): x_1 + x_4 + x_6 + x_7 + x_8 + x_9 + x_10 + x_13 + x_15 <= 8
 CC(364): x_1 + x_4 + x_5 + x_6 + x_7 + x_8 + x_9 + x_10 + x_15 <= 8
 CC(365): x_1 + x_4 + x_5 + x_6 + x_8 + x_9 + x_10 + x_11 + x_15 <= 8
 CC(366): x_1 + x_4 + x_5 + x_6 + x_7 + x_8 + x_9 + x_10 + x_11 <= 8
 CC(367): x_1 + x_4 + x_5 + x_6 + x_9 + x_10 + x_11 + x_13 + x_15 <= 8
 CC(368): x_2 + x_4 + x_5 + x_6 + x_9 + x_10 + x_11 + x_13 + x_15 <= 8
 CC(369): x_2 + x_4 + x_6 + x_7 + x_9 + x_10 + x_11 + x_13 + x_15 <= 8
 CC(370): x_1 + x_2 + x_6 + x_7 + x_9 + x_11 + x_12 + x_13 + x_15 <= 8
 CC(371): x_1 + x_2 + x_5 + x_6 + x_7 + x_9 + x_11 + x_13 + x_15 <= 8
 CC(372): x_2 + x_5 + x_6 + x_7 + x_8 + x_9 + x_11 + x_13 + x_15 <= 8
 CC(373): x_1 + x_2 + x_5 + x_6 + x_8 + x_9 + x_11 + x_13 + x_15 <= 8
 CC(374): x_1 + x_2 + x_5 + x_6 + x_7 + x_8 + x_9 + x_11 + x_13 <= 8
 CC(375): x_1 + x_2 + x_6 + x_7 + x_8 + x_9 + x_11 + x_13 + x_15 <= 8
 CC(376): x_4 + x_5 + x_6 + x_7 + x_9 + x_10 + x_12 + x_14 + x_15 <= 8
 CC(377): x_1 + x_4 + x_5 + x_7 + x_9 + x_10 + x_12 + x_14 + x_15 <= 8
 CC(378): x_1 + x_4 + x_7 + x_8 + x_9 + x_10 + x_12 + x_14 + x_15 <= 8
 CC(379): x_4 + x_6 + x_7 + x_8 + x_9 + x_10 + x_12 + x_14 + x_15 <= 8
 CC(380): x_2 + x_4 + x_7 + x_8 + x_9 + x_10 + x_12 + x_14 + x_15 <= 8
 CC(381): x_2 + x_4 + x_7 + x_8 + x_9 + x_10 + x_11 + x_12 + x_14 <= 8
 CC(382): x_2 + x_4 + x_6 + x_7 + x_9 + x_10 + x_11 + x_12 + x_14 <= 8
 CC(383): x_1 + x_2 + x_4 + x_7 + x_9 + x_10 + x_11 + x_12 + x_14 <= 8
 CC(384): x_2 + x_4 + x_5 + x_7 + x_9 + x_10 + x_11 + x_12 + x_14 <= 8
 CC(385): x_1 + x_4 + x_5 + x_6 + x_9 + x_10 + x_11 + x_13 + x_14 <= 8
 CC(386): x_2 + x_4 + x_5 + x_6 + x_7 + x_9 + x_10 + x_11 + x_14 <= 8
 CC(387): x_1 + x_2 + x_4 + x_5 + x_7 + x_9 + x_10 + x_11 + x_14 <= 8
 CC(388): x_1 + x_2 + x_5 + x_6 + x_7 + x_9 + x_10 + x_11 + x_14 <= 8
 CC(389): x_2 + x_5 + x_6 + x_7 + x_8 + x_9 + x_10 + x_11 + x_14 <= 8
 CC(390): x_2 + x_5 + x_6 + x_7 + x_9 + x_10 + x_11 + x_13 + x_14 <= 8
 CC(391): x_1 + x_2 + x_6 + x_7 + x_9 + x_10 + x_11 + x_13 + x_14 <= 8
 CC(392): x_1 + x_2 + x_6 + x_7 + x_8 + x_9 + x_10 + x_11 + x_14 <= 8
 CC(393): x_1 + x_2 + x_6 + x_7 + x_8 + x_9 + x_11 + x_13 + x_14 <= 8
 CC(394): x_1 + x_2 + x_6 + x_7 + x_9 + x_11 + x_12 + x_13 + x_14 <= 8
 CC(395): x_1 + x_2 + x_5 + x_6 + x_7 + x_9 + x_11 + x_13 + x_14 <= 8
 CC(396): x_1 + x_2 + x_5 + x_6 + x_8 + x_9 + x_11 + x_13 + x_14 <= 8
 CC(397): x_1 + x_2 + x_5 + x_6 + x_7 + x_8 + x_9 + x_13 + x_14 <= 8
 CC(398): x_1 + x_2 + x_5 + x_8 + x_9 + x_10 + x_11 + x_12 + x_15 <= 8
 CC(399): x_1 + x_2 + x_8 + x_9 + x_10 + x_11 + x_12 + x_14 + x_15 <= 8
 CC(400): x_1 + x_2 + x_3 + x_8 + x_9 + x_10 + x_11 + x_14 + x_15 <= 8
 CC(401): x_2 + x_5 + x_8 + x_9 + x_10 + x_11 + x_12 + x_14 + x_15 <= 8
 CC(402): x_1 + x_2 + x_3 + x_5 + x_9 + x_11 + x_13 + x_14 + x_15 <= 8
 CC(403): x_1 + x_2 + x_3 + x_5 + x_9 + x_12 + x_13 + x_14 + x_15 <= 8
 CC(404): x_1 + x_3 + x_5 + x_9 + x_10 + x_12 + x_13 + x_14 + x_15 <= 8
 CC(405): x_3 + x_5 + x_8 + x_9 + x_10 + x_12 + x_13 + x_14 + x_15 <= 8
 CC(406): x_3 + x_5 + x_9 + x_10 + x_11 + x_12 + x_13 + x_14 + x_15 <= 8
 CC(407): x_2 + x_3 + x_5 + x_9 + x_10 + x_11 + x_12 + x_13 + x_14 <= 8
 CC(408): x_2 + x_3 + x_5 + x_9 + x_10 + x_12 + x_13 + x_14 + x_15 <= 8
 CC(409): x_2 + x_3 + x_5 + x_8 + x_9 + x_10 + x_12 + x_13 + x_14 <= 8
 CC(410): x_1 + x_3 + x_5 + x_8 + x_9 + x_10 + x_12 + x_13 + x_14 <= 8
 CC(411): x_3 + x_5 + x_8 + x_9 + x_10 + x_11 + x_12 + x_13 + x_14 <= 8
Bounds
Binaries
 x_1 x_2 x_3 x_4 x_5 x_6 x_7 x_8 x_9 x_10 x_11 x_12 x_13 x_14 x_15
End
